%Nproc=3
%Chk=ethene.chk
#P PBEPBE/6-31+G* TD=(Nstates=4, Singlets) Pop=full gfinput IOp(6/7=3,9/40=5)

ethene

0,1
  C        1.33216       -0.00000        0.00000 
  H        1.83427        0.85707        0.00000 
  H        1.83427       -0.85707        0.00000 
  C       -0.00216        0.00000        0.00000 
  H       -0.50427        0.85707        0.00000 
  H       -0.50427       -0.85707        0.00000 




