%Nproc=3
%Chk=monomer.chk
#P AM1 Opt

monomer

0,1
C        -13.06093       -5.84962     -120.99493
C        -12.37991       -6.34086     -119.93351
C        -12.30885       -5.32742     -119.02388
C        -13.41179       -6.56583     -122.25752
C        -11.85575       -7.72491     -119.80062
C        -13.37463       -4.56084     -120.69358
Zn       -13.21725       -2.38203     -118.69083
C        -15.59466       -0.60965     -121.46706
C        -15.34347       -1.79694     -122.09791
C        -14.56869       -2.53121     -121.25683
C        -14.13031       -3.73981     -121.54222
C        -15.88326       -2.24512     -123.43449
H        -14.37572       -4.19124     -122.46840
N        -12.91470       -4.21829     -119.51013
C        -11.73213       -5.46709     -117.84535
C        -11.70120       -4.43966     -116.90954
N        -12.23502       -3.23092     -117.12605
C        -12.07282       -2.62648     -116.01314
C        -11.42732       -3.33208     -115.12232
C        -11.15165       -4.52110     -115.64464
N        -14.34968       -1.86514     -120.12602
C        -15.02935       -0.70305     -120.20624
C        -15.17467        0.18650     -119.19203
C        -12.45888       -1.39380     -115.57680
C        -13.25043       -0.59056     -116.26774
N        -13.71268       -0.85443     -117.53756
C        -14.54882        0.03731     -117.87900
C        -14.89366        0.96344     -116.75094
C        -13.79766        0.66744     -115.73456
H        -11.27501       -6.37603     -117.55533
C        -10.40276       -5.61841     -114.96968
C        -11.88948       -1.23227     -114.18771
H        -14.85489        2.02653     -117.04969
C        -16.26892        0.55494     -116.15365
C        -12.75462        1.78237     -115.60969
H        -14.22104        0.43510     -114.74899
H        -13.11729       -7.62471     -122.22011
C        -12.95925       -8.64239     -119.27891
H        -10.98196       -7.76223     -119.12731
H        -11.47590       -8.05421     -120.78509
H        -16.03002       -3.34000     -123.41298
H         -9.54293       -5.16161     -114.43511
C        -11.25448       -2.58426     -113.97006
H        -12.67628       -1.07320     -113.44638
H        -11.09208       -0.48574     -114.19605
C        -13.30807        2.97447     -114.79109
C        -12.20526        3.87491     -114.35787
C        -16.33930        0.50633     -122.11704
H         -9.97865       -6.31040     -115.72262
H        -17.11192        0.62322     -116.86611
H        -16.50369        1.20958     -115.28736
H        -16.24926       -0.49960     -115.79446
H        -12.39492        2.10951     -116.61530
H        -11.89555        1.36738     -115.06083
O        -10.68912       -2.98728     -112.97038
H        -13.83537        2.61704     -113.89349
H        -14.00768        3.57751     -115.40887
O        -11.41396        4.36832     -115.32170
O        -12.02569        4.16334     -113.17608
H        -12.58296       -9.68184     -119.19420
C        -10.35538        5.17506     -115.03895
H        -15.93820        1.49574     -121.86434
H        -17.41879        0.41288     -121.93323
H        -16.14225        0.48031     -123.19869
H         -9.62602        4.61331     -114.41522
H        -10.72483        6.07783     -114.50483
H         -9.88535        5.46972     -115.99204
O        -17.17574       -1.75173     -123.63517
H        -17.10599       -0.97898     -124.24772
H        -13.83558       -8.64080     -119.96082
H        -13.30396       -8.31206     -118.27382
H        -14.50613       -6.52965     -122.42076
H        -12.88860       -6.08697     -123.11167
H        -15.19560       -1.90994     -124.18261
H        -15.76236        1.01856     -119.35733
H        -11.06272       -6.14526     -114.31258

--Link1--
%Nproc=3
%Chk=monomer.chk
#P PBEPBE/6-31+G* Opt Geom=AllCheck

--Link1--
%Nproc=3
%Chk=monomer.chk
#P PBEPBE/6-311++G** TD=(Singlet, Nstates=4) gfinput IOP(6/7=3,9/40=5) Geom=AllCheck Pop=full





